23 28
9 12
8 22
14 11
47 41
42 28
20 55.5
24 31.5
29 47.5
41 34.5
28 34.5
13 41.5
23 47.5
36 64
25 28
35 64
32 62
9 34
27 72
34 39
5 47.5
27 41.5
33 66.5
13 77.5
44 75.5
16 83.5
36 38.5
42 94
47 94
11 74
7 90
29 51
8 96
25 97
8 77.5
33 69.5
5 69.5
29 77.5
20 81.5
52 101.5
49 111.5
8 87
2 85
42 89
29 93
27 99
23 100
15 76
43 111.5
15 104.5
